<?xml version = "1.0" encoding="UTF-8" standalone="yes"?>
<CPLEXSolution version="1.2">
 <header
   problemName="BLO"
   solutionName="incumbent"
   solutionIndex="-1"
   objectiveValue="0"
   solutionTypeValue="3"
   solutionTypeString="primal"
   solutionStatusValue="101"
   solutionStatusString="integer optimal solution"
   solutionMethodString="mip"
   primalFeasible="1"
   dualFeasible="1"
   MIPNodes="0"
   MIPIterations="0"
   writeLevel="1"/>
 <quality
   epInt="1.0000000000000001e-05"
   epRHS="9.9999999999999995e-07"
   maxIntInfeas="0"
   maxPrimalInfeas="0"
   maxX="0.28359999999999996"
   maxSlack="0"/>
 <linearConstraints>
  <constraint index="0" slack="0"/>
 </linearConstraints>
 <variables>
  <variable name="x(1)" index="0" value="0.099599999999999994"/>
  <variable name="x(2)" index="1" value="0.27800000000000002"/>
  <variable name="x(3)" index="2" value="0.28359999999999996"/>
  <variable name="x(4)" index="3" value="0.092799999999999994"/>
  <variable name="x(5)" index="4" value="0.154"/>
  <variable name="x(6)" index="5" value="0.091999999999999998"/>
 </variables>
 <objectiveValues>
  <objective index="0" name="" value="0"/>
 </objectiveValues>
</CPLEXSolution>
